c "648663.clq"
p edge 205 3024
e 1 17
e 1 18
e 1 19
e 1 20
e 1 21
e 1 22
e 1 23
e 1 24
e 1 25
e 1 26
e 1 28
e 1 30
e 1 32
e 1 33
e 1 34
e 1 43
e 1 46
e 1 48
e 1 52
e 1 54
e 1 56
e 1 57
e 1 64
e 1 69
e 1 80
e 1 81
e 1 83
e 1 95
e 1 100
e 1 101
e 1 106
e 1 107
e 1 109
e 1 114
e 1 117
e 1 120
e 1 123
e 1 124
e 1 126
e 1 127
e 1 133
e 1 144
e 1 147
e 1 177
e 1 182
e 1 194
e 1 198
e 1 200
e 1 204
e 2 17
e 2 18
e 2 19
e 2 20
e 2 21
e 2 22
e 2 23
e 2 24
e 2 28
e 2 29
e 2 30
e 2 37
e 2 38
e 2 41
e 2 44
e 2 45
e 2 47
e 2 50
e 2 53
e 2 54
e 2 58
e 2 59
e 2 61
e 2 75
e 2 76
e 2 82
e 2 83
e 2 85
e 2 96
e 2 99
e 2 103
e 2 104
e 2 115
e 2 126
e 2 130
e 2 137
e 2 143
e 2 145
e 2 149
e 2 153
e 2 156
e 2 162
e 2 166
e 2 171
e 2 173
e 2 174
e 2 175
e 2 183
e 2 184
e 2 185
e 2 194
e 2 196
e 3 17
e 3 18
e 3 21
e 3 22
e 3 35
e 3 40
e 3 80
e 3 130
e 3 169
e 3 195
e 3 200
e 4 17
e 4 18
e 4 19
e 4 20
e 4 21
e 4 22
e 4 23
e 4 24
e 4 25
e 4 26
e 4 28
e 4 31
e 4 32
e 4 33
e 4 38
e 4 46
e 4 69
e 4 70
e 4 71
e 4 73
e 4 76
e 4 78
e 4 87
e 4 92
e 4 95
e 4 97
e 4 111
e 4 117
e 4 126
e 4 129
e 4 134
e 4 138
e 4 141
e 4 190
e 4 195
e 4 197
e 4 198
e 5 17
e 5 18
e 5 19
e 5 20
e 5 21
e 5 22
e 5 23
e 5 24
e 5 25
e 5 29
e 5 30
e 5 31
e 5 32
e 5 33
e 5 35
e 5 36
e 5 40
e 5 41
e 5 46
e 5 56
e 5 58
e 5 61
e 5 81
e 5 84
e 5 85
e 5 96
e 5 97
e 5 98
e 5 104
e 5 105
e 5 111
e 5 112
e 5 125
e 5 129
e 5 143
e 5 146
e 5 147
e 5 151
e 5 156
e 5 175
e 6 17
e 6 18
e 6 21
e 6 25
e 6 26
e 6 27
e 6 29
e 6 34
e 6 39
e 6 48
e 6 50
e 6 54
e 6 64
e 6 68
e 6 70
e 6 81
e 6 101
e 6 104
e 6 105
e 6 106
e 6 122
e 6 134
e 6 144
e 6 157
e 6 182
e 6 195
e 7 17
e 7 19
e 7 20
e 7 23
e 7 24
e 7 25
e 7 27
e 7 30
e 7 32
e 7 33
e 7 34
e 7 35
e 7 37
e 7 41
e 7 43
e 7 46
e 7 52
e 7 57
e 7 61
e 7 64
e 7 68
e 7 72
e 7 77
e 7 79
e 7 86
e 7 87
e 7 91
e 7 94
e 7 99
e 7 103
e 7 110
e 7 122
e 7 123
e 7 142
e 7 147
e 7 151
e 7 158
e 7 161
e 7 168
e 7 173
e 7 175
e 7 192
e 8 17
e 8 18
e 8 19
e 8 20
e 8 21
e 8 22
e 8 23
e 8 24
e 8 25
e 8 26
e 8 28
e 8 29
e 8 32
e 8 33
e 8 35
e 8 36
e 8 39
e 8 43
e 8 44
e 8 46
e 8 49
e 8 50
e 8 51
e 8 52
e 8 53
e 8 55
e 8 57
e 8 62
e 8 63
e 8 64
e 8 65
e 8 67
e 8 69
e 8 70
e 8 75
e 8 76
e 8 82
e 8 83
e 8 88
e 8 93
e 8 98
e 8 109
e 8 110
e 8 112
e 8 113
e 8 119
e 8 126
e 8 131
e 8 140
e 8 150
e 8 151
e 8 155
e 8 160
e 8 163
e 8 164
e 8 165
e 8 166
e 8 169
e 8 170
e 8 171
e 8 175
e 8 184
e 8 185
e 8 190
e 8 192
e 8 193
e 9 17
e 9 18
e 9 19
e 9 20
e 9 22
e 9 23
e 9 24
e 9 26
e 9 30
e 9 31
e 9 33
e 9 34
e 9 35
e 9 47
e 9 48
e 9 49
e 9 50
e 9 53
e 9 54
e 9 59
e 9 60
e 9 63
e 9 67
e 9 79
e 9 80
e 9 95
e 9 97
e 9 98
e 9 100
e 9 103
e 9 126
e 9 127
e 9 134
e 9 138
e 9 139
e 9 143
e 9 152
e 9 161
e 9 164
e 9 171
e 9 176
e 9 183
e 9 186
e 9 194
e 9 196
e 9 204
e 10 17
e 10 18
e 10 19
e 10 21
e 10 22
e 10 23
e 10 24
e 10 25
e 10 28
e 10 29
e 10 31
e 10 32
e 10 33
e 10 35
e 10 37
e 10 38
e 10 39
e 10 42
e 10 43
e 10 44
e 10 45
e 10 47
e 10 49
e 10 75
e 10 78
e 10 85
e 10 86
e 10 91
e 10 92
e 10 107
e 10 119
e 10 137
e 10 141
e 10 146
e 10 150
e 10 155
e 10 162
e 10 170
e 10 172
e 10 174
e 10 180
e 10 188
e 10 202
e 11 17
e 11 18
e 11 19
e 11 20
e 11 23
e 11 24
e 11 25
e 11 26
e 11 29
e 11 30
e 11 31
e 11 32
e 11 37
e 11 39
e 11 42
e 11 44
e 11 47
e 11 49
e 11 54
e 11 57
e 11 66
e 11 67
e 11 71
e 11 76
e 11 77
e 11 80
e 11 83
e 11 91
e 11 99
e 11 102
e 11 105
e 11 110
e 11 111
e 11 112
e 11 113
e 11 121
e 11 129
e 11 136
e 11 144
e 11 150
e 11 169
e 11 172
e 11 191
e 11 192
e 11 196
e 11 200
e 12 17
e 12 18
e 12 19
e 12 20
e 12 21
e 12 22
e 12 24
e 12 25
e 12 27
e 12 30
e 12 34
e 12 35
e 12 36
e 12 37
e 12 45
e 12 48
e 12 49
e 12 52
e 12 57
e 12 69
e 12 73
e 12 77
e 12 81
e 12 82
e 12 85
e 12 87
e 12 95
e 12 105
e 12 111
e 12 113
e 12 130
e 12 131
e 12 143
e 12 144
e 12 147
e 12 156
e 12 165
e 12 167
e 12 168
e 12 176
e 12 178
e 12 182
e 12 184
e 12 189
e 12 190
e 12 192
e 12 197
e 13 17
e 13 18
e 13 19
e 13 20
e 13 21
e 13 22
e 13 27
e 13 40
e 13 43
e 13 47
e 13 50
e 13 53
e 13 58
e 13 65
e 13 67
e 13 72
e 13 80
e 13 86
e 13 92
e 13 95
e 13 99
e 13 102
e 13 106
e 13 110
e 13 119
e 13 123
e 13 128
e 13 135
e 13 136
e 13 180
e 13 201
e 14 17
e 14 18
e 14 19
e 14 20
e 14 22
e 14 23
e 14 24
e 14 27
e 14 28
e 14 30
e 14 31
e 14 33
e 14 39
e 14 40
e 14 42
e 14 45
e 14 46
e 14 48
e 14 53
e 14 56
e 14 59
e 14 60
e 14 61
e 14 63
e 14 76
e 14 78
e 14 84
e 14 86
e 14 87
e 14 101
e 14 103
e 14 104
e 14 105
e 14 108
e 14 129
e 14 139
e 14 145
e 14 148
e 14 154
e 14 155
e 14 157
e 14 159
e 14 161
e 14 162
e 14 180
e 14 181
e 14 183
e 14 186
e 14 200
e 15 17
e 15 18
e 15 19
e 15 20
e 15 21
e 15 24
e 15 26
e 15 28
e 15 31
e 15 36
e 15 40
e 15 44
e 15 47
e 15 54
e 15 57
e 15 62
e 15 63
e 15 66
e 15 68
e 15 80
e 15 81
e 15 82
e 15 105
e 15 113
e 15 114
e 15 121
e 15 123
e 15 133
e 15 140
e 15 149
e 15 178
e 15 181
e 16 17
e 16 18
e 16 19
e 16 20
e 16 21
e 16 23
e 16 27
e 16 28
e 16 29
e 16 30
e 16 33
e 16 34
e 16 39
e 16 51
e 16 65
e 16 71
e 16 73
e 16 81
e 16 86
e 16 89
e 16 92
e 16 109
e 16 123
e 16 125
e 16 129
e 16 136
e 16 147
e 16 162
e 16 163
e 16 168
e 16 183
e 16 205
e 17 18
e 17 19
e 17 20
e 17 21
e 17 22
e 17 24
e 17 25
e 17 26
e 17 27
e 17 28
e 17 29
e 17 30
e 17 31
e 17 32
e 17 33
e 17 35
e 17 36
e 17 38
e 17 40
e 17 43
e 17 44
e 17 47
e 17 49
e 17 50
e 17 52
e 17 53
e 17 55
e 17 59
e 17 62
e 17 65
e 17 68
e 17 69
e 17 72
e 17 73
e 17 74
e 17 79
e 17 81
e 17 85
e 17 87
e 17 90
e 17 91
e 17 93
e 17 94
e 17 96
e 17 97
e 17 103
e 17 104
e 17 106
e 17 107
e 17 115
e 17 119
e 17 121
e 17 125
e 17 127
e 17 132
e 17 138
e 17 143
e 17 148
e 17 152
e 17 153
e 17 159
e 17 162
e 17 165
e 17 168
e 17 172
e 17 173
e 17 179
e 17 183
e 17 186
e 17 191
e 17 198
e 17 205
e 18 19
e 18 20
e 18 21
e 18 22
e 18 23
e 18 25
e 18 26
e 18 27
e 18 29
e 18 31
e 18 32
e 18 33
e 18 34
e 18 36
e 18 37
e 18 39
e 18 40
e 18 41
e 18 42
e 18 43
e 18 44
e 18 45
e 18 46
e 18 48
e 18 49
e 18 50
e 18 51
e 18 53
e 18 55
e 18 56
e 18 57
e 18 58
e 18 60
e 18 65
e 18 66
e 18 69
e 18 71
e 18 73
e 18 75
e 18 81
e 18 82
e 18 83
e 18 84
e 18 87
e 18 88
e 18 89
e 18 91
e 18 93
e 18 100
e 18 101
e 18 102
e 18 103
e 18 105
e 18 110
e 18 111
e 18 113
e 18 115
e 18 119
e 18 120
e 18 122
e 18 124
e 18 130
e 18 133
e 18 134
e 18 140
e 18 142
e 18 147
e 18 149
e 18 150
e 18 151
e 18 152
e 18 153
e 18 156
e 18 158
e 18 161
e 18 162
e 18 169
e 18 175
e 18 179
e 18 180
e 18 187
e 18 191
e 18 193
e 18 195
e 19 20
e 19 21
e 19 22
e 19 23
e 19 25
e 19 26
e 19 27
e 19 29
e 19 30
e 19 31
e 19 34
e 19 36
e 19 38
e 19 39
e 19 40
e 19 42
e 19 45
e 19 47
e 19 48
e 19 50
e 19 55
e 19 61
e 19 63
e 19 65
e 19 72
e 19 75
e 19 77
e 19 78
e 19 93
e 19 102
e 19 104
e 19 106
e 19 115
e 19 117
e 19 120
e 19 122
e 19 125
e 19 130
e 19 133
e 19 139
e 19 149
e 19 168
e 19 173
e 19 176
e 19 205
e 20 21
e 20 22
e 20 23
e 20 24
e 20 25
e 20 26
e 20 27
e 20 28
e 20 29
e 20 30
e 20 32
e 20 35
e 20 36
e 20 37
e 20 38
e 20 39
e 20 41
e 20 42
e 20 47
e 20 48
e 20 49
e 20 51
e 20 52
e 20 53
e 20 54
e 20 58
e 20 60
e 20 61
e 20 62
e 20 64
e 20 65
e 20 67
e 20 69
e 20 70
e 20 73
e 20 76
e 20 77
e 20 83
e 20 87
e 20 88
e 20 89
e 20 90
e 20 92
e 20 98
e 20 101
e 20 102
e 20 104
e 20 115
e 20 134
e 20 136
e 20 139
e 20 140
e 20 143
e 20 149
e 20 150
e 20 151
e 20 152
e 20 156
e 20 160
e 20 161
e 20 164
e 20 167
e 20 170
e 20 177
e 20 187
e 20 189
e 20 192
e 20 197
e 20 199
e 20 200
e 20 203
e 21 22
e 21 23
e 21 25
e 21 26
e 21 27
e 21 28
e 21 29
e 21 31
e 21 32
e 21 33
e 21 34
e 21 35
e 21 36
e 21 37
e 21 38
e 21 42
e 21 43
e 21 44
e 21 47
e 21 50
e 21 52
e 21 57
e 21 59
e 21 60
e 21 62
e 21 67
e 21 68
e 21 69
e 21 73
e 21 74
e 21 75
e 21 76
e 21 78
e 21 79
e 21 80
e 21 83
e 21 84
e 21 87
e 21 88
e 21 91
e 21 92
e 21 99
e 21 100
e 21 103
e 21 104
e 21 105
e 21 108
e 21 110
e 21 111
e 21 113
e 21 114
e 21 125
e 21 130
e 21 131
e 21 134
e 21 135
e 21 140
e 21 142
e 21 155
e 21 159
e 21 165
e 21 173
e 21 174
e 21 183
e 21 187
e 21 198
e 21 200
e 21 203
e 22 23
e 22 24
e 22 25
e 22 26
e 22 27
e 22 28
e 22 29
e 22 30
e 22 33
e 22 35
e 22 37
e 22 38
e 22 39
e 22 40
e 22 41
e 22 42
e 22 44
e 22 45
e 22 46
e 22 47
e 22 48
e 22 49
e 22 50
e 22 51
e 22 53
e 22 54
e 22 56
e 22 58
e 22 59
e 22 60
e 22 63
e 22 64
e 22 67
e 22 71
e 22 74
e 22 78
e 22 79
e 22 82
e 22 83
e 22 86
e 22 88
e 22 89
e 22 90
e 22 94
e 22 96
e 22 100
e 22 101
e 22 106
e 22 113
e 22 116
e 22 121
e 22 123
e 22 127
e 22 130
e 22 132
e 22 137
e 22 140
e 22 146
e 22 151
e 22 155
e 22 157
e 22 160
e 22 161
e 22 166
e 22 173
e 22 178
e 22 182
e 22 183
e 22 187
e 22 191
e 22 195
e 22 201
e 22 203
e 23 24
e 23 25
e 23 26
e 23 27
e 23 28
e 23 30
e 23 34
e 23 35
e 23 37
e 23 42
e 23 43
e 23 46
e 23 50
e 23 55
e 23 56
e 23 63
e 23 65
e 23 68
e 23 70
e 23 71
e 23 72
e 23 77
e 23 79
e 23 85
e 23 86
e 23 98
e 23 100
e 23 103
e 23 105
e 23 106
e 23 111
e 23 114
e 23 123
e 23 128
e 23 142
e 23 145
e 23 153
e 23 164
e 23 169
e 23 182
e 23 192
e 23 204
e 24 26
e 24 27
e 24 31
e 24 36
e 24 38
e 24 40
e 24 42
e 24 44
e 24 48
e 24 53
e 24 54
e 24 55
e 24 62
e 24 63
e 24 70
e 24 72
e 24 73
e 24 82
e 24 84
e 24 89
e 24 93
e 24 96
e 24 97
e 24 100
e 24 103
e 24 106
e 24 112
e 24 118
e 24 120
e 24 123
e 24 134
e 24 135
e 24 139
e 24 142
e 24 145
e 24 149
e 24 150
e 24 156
e 24 157
e 24 162
e 24 175
e 24 176
e 24 197
e 24 202
e 24 205
e 25 26
e 25 27
e 25 28
e 25 30
e 25 31
e 25 33
e 25 37
e 25 39
e 25 40
e 25 41
e 25 45
e 25 46
e 25 49
e 25 51
e 25 53
e 25 54
e 25 55
e 25 56
e 25 57
e 25 58
e 25 61
e 25 62
e 25 63
e 25 65
e 25 66
e 25 68
e 25 75
e 25 79
e 25 90
e 25 91
e 25 96
e 25 99
e 25 104
e 25 114
e 25 115
e 25 118
e 25 119
e 25 122
e 25 126
e 25 127
e 25 146
e 25 147
e 25 148
e 25 155
e 25 158
e 25 161
e 25 165
e 25 170
e 25 187
e 25 193
e 25 197
e 25 203
e 26 27
e 26 28
e 26 29
e 26 30
e 26 31
e 26 33
e 26 34
e 26 36
e 26 37
e 26 38
e 26 39
e 26 43
e 26 44
e 26 45
e 26 49
e 26 50
e 26 55
e 26 56
e 26 57
e 26 58
e 26 60
e 26 64
e 26 69
e 26 71
e 26 74
e 26 76
e 26 81
e 26 82
e 26 92
e 26 94
e 26 99
e 26 109
e 26 113
e 26 116
e 26 120
e 26 121
e 26 122
e 26 124
e 26 134
e 26 138
e 26 140
e 26 141
e 26 143
e 26 144
e 26 146
e 26 150
e 26 157
e 26 175
e 26 177
e 26 184
e 26 186
e 26 188
e 26 194
e 26 195
e 26 201
e 26 205
e 27 28
e 27 29
e 27 31
e 27 32
e 27 35
e 27 36
e 27 37
e 27 41
e 27 42
e 27 43
e 27 45
e 27 48
e 27 52
e 27 54
e 27 56
e 27 57
e 27 59
e 27 61
e 27 66
e 27 69
e 27 72
e 27 74
e 27 75
e 27 83
e 27 84
e 27 85
e 27 86
e 27 87
e 27 91
e 27 93
e 27 101
e 27 104
e 27 106
e 27 110
e 27 115
e 27 123
e 27 127
e 27 129
e 27 130
e 27 135
e 27 139
e 27 149
e 27 165
e 27 180
e 27 181
e 27 182
e 27 192
e 27 193
e 28 29
e 28 32
e 28 34
e 28 35
e 28 36
e 28 40
e 28 41
e 28 43
e 28 45
e 28 46
e 28 51
e 28 67
e 28 71
e 28 74
e 28 76
e 28 82
e 28 94
e 28 115
e 28 118
e 28 126
e 28 127
e 28 128
e 28 129
e 28 130
e 28 132
e 28 142
e 28 148
e 28 151
e 28 167
e 28 171
e 28 187
e 28 192
e 28 197
e 28 198
e 29 31
e 29 32
e 29 34
e 29 35
e 29 38
e 29 40
e 29 44
e 29 45
e 29 51
e 29 63
e 29 68
e 29 77
e 29 81
e 29 85
e 29 86
e 29 91
e 29 98
e 29 101
e 29 102
e 29 111
e 29 124
e 29 135
e 29 136
e 29 141
e 29 149
e 29 155
e 29 156
e 29 177
e 29 178
e 29 181
e 29 189
e 29 192
e 29 193
e 30 32
e 30 38
e 30 39
e 30 42
e 30 43
e 30 44
e 30 45
e 30 49
e 30 52
e 30 53
e 30 55
e 30 56
e 30 57
e 30 59
e 30 62
e 30 65
e 30 66
e 30 67
e 30 68
e 30 70
e 30 74
e 30 76
e 30 80
e 30 82
e 30 83
e 30 84
e 30 88
e 30 90
e 30 93
e 30 104
e 30 107
e 30 108
e 30 109
e 30 116
e 30 117
e 30 120
e 30 121
e 30 137
e 30 138
e 30 152
e 30 153
e 30 157
e 30 167
e 30 168
e 30 186
e 30 191
e 30 194
e 30 195
e 30 200
e 30 205
e 31 32
e 31 33
e 31 34
e 31 36
e 31 37
e 31 38
e 31 39
e 31 40
e 31 41
e 31 47
e 31 51
e 31 52
e 31 55
e 31 57
e 31 60
e 31 61
e 31 64
e 31 72
e 31 75
e 31 88
e 31 89
e 31 95
e 31 96
e 31 97
e 31 99
e 31 114
e 31 118
e 31 147
e 31 153
e 31 160
e 31 161
e 31 165
e 31 167
e 31 172
e 31 173
e 31 191
e 31 202
e 31 204
e 32 34
e 32 35
e 32 38
e 32 41
e 32 42
e 32 43
e 32 45
e 32 46
e 32 48
e 32 58
e 32 60
e 32 64
e 32 68
e 32 75
e 32 95
e 32 96
e 32 99
e 32 102
e 32 106
e 32 107
e 32 110
e 32 111
e 32 114
e 32 120
e 32 130
e 32 131
e 32 143
e 32 145
e 32 148
e 32 156
e 32 169
e 33 34
e 33 37
e 33 38
e 33 40
e 33 41
e 33 46
e 33 49
e 33 50
e 33 56
e 33 59
e 33 61
e 33 69
e 33 71
e 33 97
e 33 98
e 33 102
e 33 108
e 33 115
e 33 120
e 33 121
e 33 124
e 33 131
e 33 135
e 33 147
e 33 158
e 33 164
e 33 166
e 33 169
e 33 171
e 33 173
e 33 183
e 33 184
e 33 194
e 34 36
e 34 39
e 34 41
e 34 51
e 34 52
e 34 54
e 34 58
e 34 60
e 34 64
e 34 65
e 34 66
e 34 68
e 34 82
e 34 96
e 34 98
e 34 106
e 34 108
e 34 109
e 34 113
e 34 123
e 34 139
e 34 155
e 34 180
e 34 200
e 35 36
e 35 37
e 35 43
e 35 44
e 35 46
e 35 51
e 35 55
e 35 56
e 35 57
e 35 59
e 35 66
e 35 72
e 35 74
e 35 76
e 35 78
e 35 79
e 35 81
e 35 82
e 35 84
e 35 88
e 35 91
e 35 92
e 35 93
e 35 95
e 35 98
e 35 105
e 35 108
e 35 109
e 35 110
e 35 114
e 35 117
e 35 129
e 35 134
e 35 136
e 35 138
e 35 153
e 35 187
e 35 189
e 35 196
e 35 197
e 35 203
e 36 38
e 36 42
e 36 46
e 36 48
e 36 49
e 36 50
e 36 56
e 36 58
e 36 62
e 36 63
e 36 65
e 36 67
e 36 82
e 36 86
e 36 95
e 36 98
e 36 99
e 36 101
e 36 105
e 36 106
e 36 131
e 36 133
e 36 143
e 36 155
e 36 169
e 36 174
e 36 181
e 36 184
e 36 199
e 37 39
e 37 41
e 37 44
e 37 45
e 37 47
e 37 50
e 37 51
e 37 52
e 37 59
e 37 60
e 37 61
e 37 70
e 37 71
e 37 79
e 37 85
e 37 88
e 37 89
e 37 93
e 37 112
e 37 114
e 37 122
e 37 124
e 37 128
e 37 129
e 37 135
e 37 146
e 37 149
e 37 152
e 37 160
e 37 167
e 37 168
e 37 174
e 37 175
e 37 176
e 37 178
e 37 191
e 37 205
e 38 41
e 38 43
e 38 53
e 38 55
e 38 59
e 38 61
e 38 63
e 38 65
e 38 77
e 38 78
e 38 83
e 38 92
e 38 96
e 38 100
e 38 107
e 38 110
e 38 126
e 38 130
e 38 135
e 38 136
e 38 137
e 38 139
e 38 152
e 38 154
e 38 157
e 38 174
e 38 178
e 38 179
e 38 193
e 38 198
e 38 199
e 38 202
e 39 40
e 39 42
e 39 44
e 39 48
e 39 51
e 39 52
e 39 55
e 39 59
e 39 60
e 39 61
e 39 74
e 39 81
e 39 89
e 39 96
e 39 102
e 39 103
e 39 117
e 39 118
e 39 120
e 39 122
e 39 125
e 39 132
e 39 135
e 39 138
e 39 140
e 39 151
e 39 153
e 39 154
e 39 170
e 39 172
e 39 195
e 39 196
e 39 205
e 40 41
e 40 42
e 40 45
e 40 50
e 40 68
e 40 70
e 40 77
e 40 79
e 40 80
e 40 84
e 40 86
e 40 90
e 40 93
e 40 95
e 40 96
e 40 104
e 40 112
e 40 114
e 40 116
e 40 117
e 40 120
e 40 133
e 40 150
e 40 160
e 40 164
e 40 167
e 40 190
e 40 195
e 40 202
e 41 47
e 41 54
e 41 56
e 41 64
e 41 67
e 41 70
e 41 71
e 41 74
e 41 77
e 41 80
e 41 94
e 41 95
e 41 97
e 41 119
e 41 126
e 41 137
e 41 197
e 41 205
e 42 49
e 42 52
e 42 55
e 42 62
e 42 66
e 42 71
e 42 83
e 42 87
e 42 89
e 42 108
e 42 112
e 42 117
e 42 121
e 42 124
e 42 128
e 42 145
e 42 154
e 42 156
e 42 159
e 42 163
e 42 172
e 42 175
e 42 177
e 42 178
e 42 179
e 42 181
e 42 197
e 43 46
e 43 48
e 43 49
e 43 55
e 43 58
e 43 61
e 43 67
e 43 79
e 43 80
e 43 84
e 43 90
e 43 91
e 43 97
e 43 102
e 43 103
e 43 104
e 43 107
e 43 126
e 43 145
e 43 157
e 43 158
e 43 162
e 43 171
e 43 180
e 43 184
e 43 203
e 44 47
e 44 51
e 44 52
e 44 53
e 44 56
e 44 57
e 44 62
e 44 66
e 44 69
e 44 73
e 44 74
e 44 77
e 44 82
e 44 88
e 44 90
e 44 97
e 44 98
e 44 99
e 44 107
e 44 108
e 44 121
e 44 122
e 44 128
e 44 132
e 44 140
e 44 147
e 44 148
e 44 149
e 44 150
e 44 154
e 44 158
e 44 160
e 44 171
e 44 178
e 44 179
e 44 181
e 44 195
e 44 204
e 45 48
e 45 66
e 45 75
e 45 77
e 45 80
e 45 96
e 45 109
e 45 125
e 45 126
e 45 141
e 45 170
e 45 179
e 45 185
e 45 186
e 45 201
e 46 47
e 46 51
e 46 53
e 46 54
e 46 58
e 46 59
e 46 63
e 46 66
e 46 67
e 46 68
e 46 72
e 46 73
e 46 74
e 46 77
e 46 86
e 46 87
e 46 102
e 46 107
e 46 122
e 46 128
e 46 130
e 46 132
e 46 136
e 46 138
e 46 140
e 46 141
e 46 150
e 46 153
e 46 160
e 46 162
e 46 164
e 46 189
e 46 192
e 46 193
e 47 51
e 47 52
e 47 54
e 47 60
e 47 62
e 47 66
e 47 67
e 47 75
e 47 87
e 47 91
e 47 98
e 47 100
e 47 105
e 47 114
e 47 118
e 47 120
e 47 124
e 47 142
e 47 163
e 47 164
e 47 174
e 47 201
e 48 58
e 48 63
e 48 70
e 48 74
e 48 76
e 48 78
e 48 85
e 48 91
e 48 92
e 48 95
e 48 97
e 48 100
e 48 109
e 48 116
e 48 117
e 48 121
e 48 126
e 48 131
e 48 136
e 48 140
e 48 156
e 48 166
e 48 171
e 48 182
e 48 188
e 49 53
e 49 61
e 49 63
e 49 64
e 49 69
e 49 72
e 49 78
e 49 80
e 49 95
e 49 107
e 49 113
e 49 114
e 49 118
e 49 123
e 49 124
e 49 126
e 49 137
e 49 145
e 49 146
e 49 153
e 49 156
e 49 170
e 49 171
e 49 194
e 49 196
e 50 56
e 50 57
e 50 58
e 50 62
e 50 64
e 50 66
e 50 74
e 50 80
e 50 94
e 50 97
e 50 99
e 50 102
e 50 107
e 50 108
e 50 141
e 50 156
e 50 166
e 50 180
e 50 181
e 50 182
e 50 193
e 51 55
e 51 64
e 51 73
e 51 75
e 51 77
e 51 83
e 51 87
e 51 88
e 51 93
e 51 106
e 51 107
e 51 111
e 51 122
e 51 133
e 51 142
e 51 176
e 51 178
e 51 182
e 51 197
e 52 54
e 52 60
e 52 65
e 52 69
e 52 73
e 52 76
e 52 82
e 52 98
e 52 111
e 52 114
e 52 119
e 52 127
e 52 144
e 52 152
e 52 162
e 52 163
e 52 174
e 52 199
e 52 204
e 53 68
e 53 71
e 53 75
e 53 76
e 53 80
e 53 86
e 53 90
e 53 94
e 53 104
e 53 109
e 53 110
e 53 116
e 53 119
e 53 124
e 53 127
e 53 137
e 53 143
e 53 154
e 53 157
e 53 161
e 53 167
e 53 186
e 53 204
e 54 59
e 54 62
e 54 67
e 54 69
e 54 70
e 54 71
e 54 83
e 54 90
e 54 91
e 54 94
e 54 114
e 54 119
e 54 121
e 54 128
e 54 129
e 54 131
e 54 133
e 54 139
e 54 140
e 54 152
e 54 173
e 54 175
e 54 198
e 54 203
e 55 65
e 55 72
e 55 76
e 55 85
e 55 89
e 55 90
e 55 93
e 55 109
e 55 119
e 55 124
e 55 139
e 55 168
e 55 172
e 55 177
e 55 184
e 55 187
e 55 188
e 55 190
e 56 58
e 56 68
e 56 81
e 56 85
e 56 91
e 56 93
e 56 98
e 56 108
e 56 123
e 56 132
e 56 139
e 56 144
e 56 157
e 56 164
e 56 176
e 56 186
e 56 196
e 56 198
e 56 204
e 57 59
e 57 60
e 57 61
e 57 62
e 57 63
e 57 64
e 57 70
e 57 76
e 57 82
e 57 84
e 57 88
e 57 92
e 57 93
e 57 99
e 57 103
e 57 121
e 57 125
e 57 130
e 57 137
e 57 138
e 57 158
e 57 159
e 57 163
e 57 185
e 57 195
e 57 204
e 58 60
e 58 71
e 58 83
e 58 85
e 58 92
e 58 104
e 58 122
e 58 151
e 58 154
e 58 158
e 58 175
e 58 177
e 59 65
e 59 73
e 59 74
e 59 77
e 59 84
e 59 85
e 59 87
e 59 98
e 59 109
e 59 111
e 59 112
e 59 115
e 59 123
e 59 136
e 59 157
e 59 163
e 59 180
e 60 62
e 60 64
e 60 75
e 60 80
e 60 89
e 60 105
e 60 112
e 60 118
e 60 142
e 60 147
e 60 156
e 60 159
e 60 165
e 60 180
e 60 199
e 61 66
e 61 85
e 61 105
e 61 118
e 61 133
e 61 141
e 61 155
e 61 179
e 61 205
e 62 66
e 62 68
e 62 73
e 62 74
e 62 78
e 62 84
e 62 90
e 62 93
e 62 106
e 62 111
e 62 124
e 62 125
e 62 128
e 62 129
e 62 131
e 62 134
e 62 143
e 62 148
e 62 149
e 62 182
e 62 187
e 62 205
e 63 70
e 63 71
e 63 72
e 63 79
e 63 83
e 63 150
e 63 168
e 63 190
e 63 200
e 64 70
e 64 78
e 64 88
e 64 95
e 64 97
e 64 99
e 64 102
e 64 104
e 64 105
e 64 112
e 64 113
e 64 116
e 64 141
e 64 146
e 64 153
e 64 165
e 64 167
e 64 170
e 64 175
e 64 183
e 64 184
e 64 196
e 64 202
e 65 67
e 65 72
e 65 88
e 65 89
e 65 92
e 65 94
e 65 108
e 65 114
e 65 116
e 65 118
e 65 128
e 65 143
e 65 144
e 65 152
e 65 154
e 65 165
e 65 170
e 65 171
e 65 183
e 65 184
e 65 200
e 66 72
e 66 73
e 66 89
e 66 96
e 66 100
e 66 101
e 66 122
e 66 123
e 66 133
e 66 137
e 66 140
e 66 145
e 66 167
e 66 189
e 66 205
e 67 69
e 67 70
e 67 78
e 67 89
e 67 101
e 67 124
e 67 136
e 67 142
e 67 144
e 67 146
e 67 166
e 67 185
e 67 188
e 68 81
e 68 90
e 68 101
e 68 105
e 68 118
e 68 127
e 68 135
e 68 150
e 68 156
e 68 172
e 68 183
e 68 186
e 68 195
e 69 92
e 69 99
e 69 100
e 69 128
e 69 129
e 69 144
e 69 155
e 69 176
e 69 186
e 69 200
e 70 77
e 70 86
e 70 114
e 70 119
e 70 137
e 70 163
e 70 174
e 70 179
e 70 180
e 70 190
e 71 72
e 71 78
e 71 79
e 71 81
e 71 88
e 71 100
e 71 107
e 71 108
e 71 109
e 71 112
e 71 116
e 71 117
e 71 124
e 71 128
e 71 132
e 71 135
e 71 142
e 71 145
e 71 151
e 71 158
e 71 159
e 71 161
e 71 166
e 71 168
e 71 172
e 71 181
e 71 190
e 72 73
e 72 78
e 72 90
e 72 100
e 72 103
e 72 119
e 72 126
e 72 128
e 72 135
e 72 142
e 72 152
e 72 169
e 72 185
e 73 94
e 73 96
e 73 107
e 73 127
e 73 133
e 73 136
e 73 159
e 73 172
e 73 189
e 74 75
e 74 79
e 74 85
e 74 92
e 74 94
e 74 106
e 74 112
e 74 115
e 74 122
e 74 145
e 74 164
e 74 169
e 74 185
e 74 189
e 74 201
e 75 78
e 75 79
e 75 87
e 75 90
e 75 94
e 75 97
e 75 115
e 75 118
e 75 142
e 75 163
e 75 181
e 75 183
e 75 195
e 76 79
e 76 102
e 76 133
e 76 134
e 76 135
e 76 139
e 76 142
e 76 148
e 76 160
e 76 193
e 76 195
e 77 89
e 77 108
e 77 115
e 77 116
e 77 120
e 77 125
e 77 133
e 77 143
e 77 158
e 77 161
e 77 180
e 77 186
e 77 190
e 77 191
e 78 87
e 78 92
e 78 97
e 78 120
e 78 126
e 78 132
e 78 148
e 78 152
e 78 161
e 78 165
e 78 186
e 78 194
e 78 199
e 79 81
e 79 84
e 79 86
e 79 113
e 79 115
e 79 131
e 79 141
e 79 155
e 79 169
e 79 189
e 80 100
e 80 106
e 80 108
e 80 110
e 80 116
e 80 120
e 80 162
e 80 166
e 80 175
e 80 186
e 80 194
e 80 199
e 81 84
e 81 88
e 81 89
e 81 91
e 81 96
e 81 101
e 81 111
e 81 116
e 81 117
e 81 125
e 81 132
e 81 140
e 81 154
e 81 157
e 81 184
e 81 193
e 81 200
e 82 86
e 82 98
e 82 110
e 82 117
e 82 118
e 82 139
e 82 176
e 82 177
e 82 184
e 82 188
e 82 192
e 82 200
e 83 84
e 83 94
e 83 115
e 83 117
e 83 127
e 83 128
e 83 134
e 83 143
e 83 159
e 83 161
e 83 177
e 83 191
e 83 199
e 84 95
e 84 99
e 84 125
e 84 132
e 84 133
e 84 135
e 84 137
e 84 144
e 84 148
e 84 149
e 84 159
e 84 164
e 84 170
e 84 181
e 84 185
e 84 192
e 84 202
e 85 170
e 85 187
e 86 93
e 86 107
e 86 112
e 86 121
e 86 127
e 86 134
e 86 171
e 86 188
e 86 191
e 87 94
e 87 95
e 87 144
e 87 167
e 87 173
e 87 178
e 87 184
e 87 196
e 88 97
e 88 100
e 88 101
e 88 113
e 88 116
e 88 130
e 88 140
e 88 142
e 88 151
e 88 167
e 88 179
e 88 188
e 88 189
e 88 195
e 88 198
e 88 201
e 89 90
e 89 131
e 89 137
e 89 143
e 89 144
e 89 157
e 89 159
e 89 165
e 89 199
e 90 121
e 90 128
e 90 132
e 90 135
e 90 164
e 91 116
e 91 142
e 91 152
e 91 172
e 91 174
e 91 176
e 92 94
e 92 101
e 92 103
e 92 107
e 92 141
e 92 192
e 92 196
e 93 110
e 93 134
e 93 150
e 93 153
e 93 184
e 93 190
e 93 203
e 94 103
e 94 109
e 94 115
e 94 129
e 94 131
e 94 134
e 94 145
e 94 152
e 94 166
e 94 173
e 94 179
e 95 113
e 95 117
e 95 120
e 95 123
e 95 132
e 95 151
e 95 162
e 95 167
e 95 173
e 95 193
e 95 194
e 96 102
e 96 160
e 96 162
e 96 171
e 96 187
e 97 116
e 97 120
e 97 141
e 97 151
e 97 158
e 97 180
e 97 183
e 97 188
e 98 101
e 98 109
e 98 112
e 98 126
e 98 127
e 98 129
e 98 132
e 98 141
e 98 146
e 98 148
e 98 153
e 98 172
e 98 182
e 99 102
e 99 108
e 99 113
e 99 119
e 99 124
e 99 144
e 99 145
e 99 183
e 99 186
e 99 191
e 99 199
e 99 202
e 100 109
e 100 125
e 100 127
e 100 138
e 100 145
e 100 146
e 100 166
e 100 170
e 100 181
e 100 187
e 101 103
e 101 110
e 101 113
e 101 117
e 101 124
e 101 129
e 101 132
e 101 138
e 101 139
e 101 154
e 101 174
e 101 176
e 101 179
e 101 194
e 102 146
e 102 155
e 102 161
e 102 168
e 102 185
e 103 130
e 103 136
e 103 148
e 103 168
e 103 169
e 103 192
e 103 202
e 104 108
e 104 112
e 104 118
e 104 121
e 104 138
e 104 141
e 104 144
e 104 173
e 104 193
e 104 194
e 104 197
e 104 203
e 105 111
e 105 119
e 105 125
e 105 130
e 105 137
e 105 138
e 105 145
e 105 157
e 105 171
e 105 174
e 105 177
e 105 186
e 105 187
e 105 188
e 105 191
e 105 194
e 105 198
e 106 110
e 106 149
e 106 155
e 106 176
e 106 201
e 107 111
e 107 122
e 107 150
e 107 161
e 107 162
e 107 170
e 107 188
e 107 193
e 107 199
e 108 136
e 108 171
e 108 199
e 109 119
e 109 131
e 109 134
e 109 136
e 109 138
e 109 166
e 109 174
e 109 182
e 110 112
e 110 122
e 110 137
e 110 146
e 110 161
e 110 176
e 110 181
e 110 189
e 110 191
e 111 116
e 111 117
e 111 131
e 111 135
e 111 141
e 111 147
e 111 149
e 111 151
e 111 163
e 111 172
e 111 176
e 111 178
e 111 179
e 111 189
e 111 192
e 112 121
e 112 173
e 112 185
e 112 188
e 112 198
e 113 131
e 113 153
e 113 155
e 113 196
e 114 133
e 114 141
e 114 175
e 114 189
e 115 132
e 115 133
e 115 147
e 115 159
e 115 198
e 116 118
e 116 165
e 116 181
e 116 201
e 117 118
e 117 154
e 117 156
e 117 190
e 118 125
e 118 131
e 118 143
e 118 146
e 118 158
e 118 169
e 118 172
e 118 203
e 119 123
e 119 127
e 119 138
e 119 139
e 119 154
e 119 160
e 119 166
e 120 140
e 120 154
e 120 160
e 120 203
e 120 205
e 121 125
e 121 136
e 121 151
e 121 152
e 121 154
e 121 164
e 121 170
e 121 178
e 121 194
e 122 146
e 122 167
e 122 201
e 122 202
e 123 139
e 123 197
e 124 158
e 124 164
e 124 178
e 124 185
e 124 191
e 125 128
e 125 152
e 125 169
e 125 176
e 125 187
e 125 193
e 125 196
e 125 197
e 126 144
e 126 153
e 126 155
e 126 158
e 126 173
e 126 175
e 126 177
e 127 129
e 127 138
e 127 177
e 127 196
e 127 202
e 128 145
e 128 153
e 128 163
e 128 171
e 128 190
e 129 148
e 129 149
e 129 157
e 129 159
e 129 176
e 129 192
e 130 149
e 130 163
e 130 179
e 131 148
e 131 163
e 131 168
e 131 182
e 131 185
e 131 189
e 132 154
e 132 175
e 132 188
e 132 194
e 133 146
e 133 151
e 133 163
e 133 178
e 133 189
e 133 198
e 134 137
e 134 168
e 135 164
e 135 174
e 135 193
e 135 203
e 135 204
e 136 154
e 137 167
e 137 170
e 137 202
e 138 167
e 138 174
e 138 187
e 138 199
e 138 204
e 139 157
e 139 185
e 139 201
e 140 147
e 140 148
e 140 159
e 140 160
e 140 203
e 141 147
e 141 159
e 141 179
e 141 181
e 141 182
e 141 194
e 141 203
e 142 156
e 142 160
e 142 169
e 142 187
e 142 204
e 143 165
e 143 195
e 144 148
e 144 158
e 144 198
e 145 147
e 145 160
e 145 172
e 145 178
e 146 150
e 146 158
e 146 168
e 146 180
e 146 197
e 147 162
e 148 165
e 148 178
e 148 205
e 149 150
e 149 184
e 149 201
e 150 165
e 150 174
e 150 202
e 151 185
e 151 200
e 153 160
e 153 166
e 153 196
e 154 162
e 154 169
e 154 188
e 154 201
e 155 173
e 155 181
e 155 182
e 155 193
e 155 201
e 156 163
e 156 188
e 157 159
e 157 166
e 157 171
e 157 197
e 158 204
e 159 163
e 159 177
e 160 179
e 160 191
e 161 177
e 162 164
e 162 168
e 162 177
e 162 179
e 163 166
e 163 180
e 164 190
e 165 188
e 165 189
e 166 190
e 166 196
e 166 203
e 167 170
e 167 198
e 168 177
e 168 185
e 170 190
e 170 191
e 170 205
e 171 172
e 174 180
e 174 182
e 174 185
e 174 203
e 175 186
e 175 202
e 176 183
e 176 190
e 176 201
e 177 183
e 177 202
e 179 196
e 179 201
e 182 184
e 186 202
e 186 204
e 188 197
e 189 199
e 189 200
e 191 204
e 192 198
e 192 205
e 193 199
e 194 200
e 198 199
e 198 204
